p cnf 1706 3176
-1 2 0
3 2 0
1 -3 -2 0
4 -2 0
-4 2 0
-5 6 0
7 6 0
5 -7 -6 0
8 -6 0
-8 6 0
-9 10 0
11 10 0
9 -11 -10 0
12 -10 0
-12 10 0
-13 14 0
15 14 0
13 -15 -14 0
16 -14 0
-16 14 0
-17 18 0
19 18 0
17 -19 -18 0
20 -18 0
-20 18 0
-21 22 0
23 22 0
21 -23 -22 0
24 -22 0
-24 22 0
-25 26 0
27 26 0
25 -27 -26 0
28 -26 0
-28 26 0
-29 30 0
31 30 0
29 -31 -30 0
32 -30 0
-32 30 0
-33 34 0
35 34 0
33 -35 -34 0
36 -34 0
-36 34 0
-37 38 0
39 38 0
37 -39 -38 0
40 -38 0
-40 38 0
-41 42 0
43 42 0
41 -43 -42 0
44 -42 0
-44 42 0
-45 46 0
47 46 0
45 -47 -46 0
48 -46 0
-48 46 0
-49 50 0
51 50 0
49 -51 -50 0
52 -50 0
-52 50 0
-53 54 0
55 54 0
53 -55 -54 0
56 -54 0
-56 54 0
-57 58 0
59 58 0
57 -59 -58 0
60 -58 0
-60 58 0
-61 62 0
63 62 0
61 -63 -62 0
64 -62 0
-64 62 0
-65 66 0
67 66 0
65 -67 -66 0
68 -66 0
-68 66 0
-69 70 0
71 70 0
69 -71 -70 0
72 -70 0
-72 70 0
-73 74 0
75 74 0
73 -75 -74 0
76 -74 0
-76 74 0
-77 78 0
79 78 0
77 -79 -78 0
80 -78 0
-80 78 0
-81 82 0
83 82 0
81 -83 -82 0
84 -82 0
-84 82 0
-85 86 0
87 86 0
85 -87 -86 0
88 -86 0
-88 86 0
-89 90 0
91 90 0
89 -91 -90 0
92 -90 0
-92 90 0
-93 94 0
95 94 0
93 -95 -94 0
96 -94 0
-96 94 0
-97 98 0
99 98 0
97 -99 -98 0
100 -98 0
-100 98 0
-101 102 0
103 102 0
101 -103 -102 0
104 -102 0
-104 102 0
-105 106 0
107 106 0
105 -107 -106 0
108 -106 0
-108 106 0
-109 110 0
111 110 0
109 -111 -110 0
112 -110 0
-112 110 0
-113 114 0
115 114 0
113 -115 -114 0
116 -114 0
-116 114 0
-117 118 0
119 118 0
117 -119 -118 0
120 -118 0
-120 118 0
-121 122 0
123 122 0
121 -123 -122 0
124 -122 0
-124 122 0
-125 126 0
127 126 0
125 -127 -126 0
128 -126 0
-128 126 0
-129 130 0
131 130 0
129 -131 -130 0
132 -130 0
-132 130 0
-133 134 0
135 134 0
133 -135 -134 0
136 -134 0
-136 134 0
-137 138 0
139 138 0
137 -139 -138 0
140 -138 0
-140 138 0
-141 142 0
143 142 0
141 -143 -142 0
144 -142 0
-144 142 0
-145 146 0
147 146 0
145 -147 -146 0
148 -146 0
-148 146 0
-149 150 0
151 150 0
149 -151 -150 0
152 -150 0
-152 150 0
-153 154 0
155 154 0
153 -155 -154 0
156 -154 0
-156 154 0
-157 158 0
159 158 0
157 -159 -158 0
160 -158 0
-160 158 0
-161 162 0
163 162 0
161 -163 -162 0
164 -162 0
-164 162 0
-165 166 0
167 166 0
165 -167 -166 0
168 -166 0
-168 166 0
-169 170 0
171 170 0
169 -171 -170 0
172 -170 0
-172 170 0
-173 174 0
175 174 0
173 -175 -174 0
176 -174 0
-176 174 0
-177 178 0
179 178 0
177 -179 -178 0
180 -178 0
-180 178 0
-181 182 0
183 182 0
181 -183 -182 0
184 -182 0
-184 182 0
-185 186 0
187 186 0
185 -187 -186 0
188 -186 0
-188 186 0
-189 190 0
191 190 0
189 -191 -190 0
192 -190 0
-192 190 0
-193 194 0
195 194 0
193 -195 -194 0
196 -194 0
-196 194 0
-197 198 0
199 198 0
197 -199 -198 0
200 -198 0
-200 198 0
-201 202 0
203 202 0
201 -203 -202 0
204 -202 0
-204 202 0
-205 206 0
207 206 0
205 -207 -206 0
208 -206 0
-208 206 0
-209 210 0
211 210 0
209 -211 -210 0
212 -210 0
-212 210 0
-213 214 0
215 214 0
213 -215 -214 0
216 -214 0
-216 214 0
-217 218 0
219 218 0
217 -219 -218 0
220 -218 0
-220 218 0
-221 222 0
223 222 0
221 -223 -222 0
224 -222 0
-224 222 0
-225 226 0
227 226 0
225 -227 -226 0
228 -226 0
-228 226 0
-229 230 0
231 230 0
229 -231 -230 0
232 -230 0
-232 230 0
-233 234 0
235 234 0
233 -235 -234 0
236 -234 0
-236 234 0
-237 238 0
239 238 0
237 -239 -238 0
240 -238 0
-240 238 0
-241 242 0
243 242 0
241 -243 -242 0
244 -242 0
-244 242 0
-245 246 0
247 246 0
245 -247 -246 0
248 -246 0
-248 246 0
-249 250 0
251 250 0
249 -251 -250 0
252 -250 0
-252 250 0
-253 254 0
255 254 0
253 -255 -254 0
256 -254 0
-256 254 0
-257 258 0
259 258 0
257 -259 -258 0
260 -258 0
-260 258 0
-261 262 0
263 262 0
261 -263 -262 0
264 -262 0
-264 262 0
-265 266 0
267 266 0
265 -267 -266 0
268 -266 0
-268 266 0
-269 270 0
271 270 0
269 -271 -270 0
272 -270 0
-272 270 0
-273 274 0
275 274 0
273 -275 -274 0
276 -274 0
-276 274 0
-277 278 0
279 278 0
277 -279 -278 0
280 -278 0
-280 278 0
-281 282 0
283 282 0
281 -283 -282 0
284 -282 0
-284 282 0
-285 286 0
287 286 0
285 -287 -286 0
288 -286 0
-288 286 0
-289 290 0
291 290 0
289 -291 -290 0
292 -290 0
-292 290 0
-293 294 0
295 294 0
293 -295 -294 0
296 -294 0
-296 294 0
-297 298 0
299 298 0
297 -299 -298 0
300 -298 0
-300 298 0
-301 302 0
303 302 0
301 -303 -302 0
304 -302 0
-304 302 0
-305 306 0
307 306 0
305 -307 -306 0
308 -306 0
-308 306 0
-309 310 0
311 310 0
309 -311 -310 0
312 -310 0
-312 310 0
-313 314 0
315 314 0
313 -315 -314 0
316 -314 0
-316 314 0
-317 318 0
319 318 0
317 -319 -318 0
320 -318 0
-320 318 0
-321 322 0
323 322 0
321 -323 -322 0
324 -322 0
-324 322 0
-325 326 0
327 326 0
325 -327 -326 0
328 -326 0
-328 326 0
-329 330 0
331 330 0
329 -331 -330 0
332 -330 0
-332 330 0
-333 334 0
335 334 0
333 -335 -334 0
336 -334 0
-336 334 0
-337 338 0
339 338 0
337 -339 -338 0
340 -338 0
-340 338 0
-341 342 0
343 342 0
341 -343 -342 0
344 -342 0
-344 342 0
-345 346 0
347 346 0
345 -347 -346 0
348 -346 0
-348 346 0
-349 350 0
351 350 0
349 -351 -350 0
352 -350 0
-352 350 0
-353 354 0
355 354 0
353 -355 -354 0
356 -354 0
-356 354 0
-357 358 0
359 358 0
357 -359 -358 0
360 -358 0
-360 358 0
-361 362 0
363 362 0
361 -363 -362 0
364 -362 0
-364 362 0
-365 366 0
367 366 0
365 -367 -366 0
368 -366 0
-368 366 0
-369 370 0
371 370 0
369 -371 -370 0
372 -370 0
-372 370 0
-373 374 0
375 374 0
373 -375 -374 0
376 -374 0
-376 374 0
-377 378 0
379 378 0
377 -379 -378 0
380 -378 0
-380 378 0
-381 382 0
383 382 0
381 -383 -382 0
384 -382 0
-384 382 0
-385 386 0
387 386 0
385 -387 -386 0
388 -386 0
-388 386 0
-389 390 0
391 390 0
389 -391 -390 0
392 -390 0
-392 390 0
-393 394 0
395 394 0
393 -395 -394 0
396 -394 0
-396 394 0
-397 398 0
399 398 0
397 -399 -398 0
400 -398 0
-400 398 0
-401 402 0
403 402 0
401 -403 -402 0
404 -402 0
-404 402 0
-405 406 0
407 406 0
405 -407 -406 0
408 -406 0
-408 406 0
-409 410 0
411 410 0
409 -411 -410 0
412 -410 0
-412 410 0
-413 414 0
415 414 0
413 -415 -414 0
416 -414 0
-416 414 0
-417 418 0
419 418 0
417 -419 -418 0
420 -418 0
-420 418 0
-421 422 0
423 422 0
421 -423 -422 0
424 -422 0
-424 422 0
-425 426 0
427 426 0
425 -427 -426 0
428 -426 0
-428 426 0
-429 430 0
431 430 0
429 -431 -430 0
432 -430 0
-432 430 0
-433 434 0
435 434 0
433 -435 -434 0
436 -434 0
-436 434 0
-437 438 0
439 438 0
437 -439 -438 0
440 -438 0
-440 438 0
-441 442 0
443 442 0
441 -443 -442 0
444 -442 0
-444 442 0
-445 446 0
447 446 0
445 -447 -446 0
448 -446 0
-448 446 0
-449 450 0
451 450 0
449 -451 -450 0
452 -450 0
-452 450 0
-453 454 0
455 454 0
453 -455 -454 0
456 -454 0
-456 454 0
-457 458 0
459 458 0
457 -459 -458 0
460 -458 0
-460 458 0
-461 462 0
463 462 0
461 -463 -462 0
464 -462 0
-464 462 0
-465 466 0
467 466 0
465 -467 -466 0
468 -466 0
-468 466 0
-469 470 0
471 470 0
469 -471 -470 0
472 -470 0
-472 470 0
-473 474 0
475 474 0
473 -475 -474 0
476 -474 0
-476 474 0
-477 478 0
479 478 0
477 -479 -478 0
480 -478 0
-480 478 0
-481 482 0
483 482 0
481 -483 -482 0
484 -482 0
-484 482 0
-485 486 0
487 486 0
485 -487 -486 0
488 -486 0
-488 486 0
-489 490 0
491 490 0
489 -491 -490 0
492 -490 0
-492 490 0
-493 494 0
495 494 0
493 -495 -494 0
496 -494 0
-496 494 0
-497 498 0
499 498 0
497 -499 -498 0
500 -498 0
-500 498 0
-501 502 0
503 502 0
501 -503 -502 0
504 -502 0
-504 502 0
-505 506 0
507 506 0
505 -507 -506 0
508 -506 0
-508 506 0
-509 510 0
511 510 0
509 -511 -510 0
512 -510 0
-512 510 0
-513 514 0
515 514 0
513 -515 -514 0
516 -514 0
-516 514 0
-517 518 0
519 518 0
517 -519 -518 0
520 -518 0
-520 518 0
-521 522 0
523 522 0
521 -523 -522 0
524 -522 0
-524 522 0
-525 526 0
527 526 0
525 -527 -526 0
528 -526 0
-528 526 0
-529 530 0
531 530 0
529 -531 -530 0
532 -530 0
-532 530 0
-533 534 0
535 534 0
533 -535 -534 0
536 -534 0
-536 534 0
-537 538 0
539 538 0
537 -539 -538 0
540 -538 0
-540 538 0
-541 542 0
543 542 0
541 -543 -542 0
544 -542 0
-544 542 0
-545 546 0
547 546 0
545 -547 -546 0
548 -546 0
-548 546 0
-549 550 0
551 550 0
549 -551 -550 0
552 -550 0
-552 550 0
-553 554 0
555 554 0
553 -555 -554 0
556 -554 0
-556 554 0
-557 558 0
559 558 0
557 -559 -558 0
560 -558 0
-560 558 0
-561 562 0
563 562 0
561 -563 -562 0
564 -562 0
-564 562 0
-565 566 0
567 566 0
565 -567 -566 0
568 -566 0
-568 566 0
-569 570 0
571 570 0
569 -571 -570 0
572 -570 0
-572 570 0
-573 574 0
575 574 0
573 -575 -574 0
576 -574 0
-576 574 0
-577 578 0
579 578 0
577 -579 -578 0
580 -578 0
-580 578 0
-581 582 0
583 582 0
581 -583 -582 0
584 -582 0
-584 582 0
-585 586 0
587 586 0
585 -587 -586 0
588 -586 0
-588 586 0
-589 590 0
591 590 0
589 -591 -590 0
592 -590 0
-592 590 0
-593 594 0
595 594 0
593 -595 -594 0
596 -594 0
-596 594 0
-597 598 0
599 598 0
597 -599 -598 0
600 -598 0
-600 598 0
-601 602 0
603 602 0
601 -603 -602 0
604 -602 0
-604 602 0
-605 606 0
607 606 0
605 -607 -606 0
608 -606 0
-608 606 0
-609 610 0
611 610 0
609 -611 -610 0
612 -610 0
-612 610 0
-613 614 0
615 614 0
613 -615 -614 0
616 -614 0
-616 614 0
-617 618 0
619 618 0
617 -619 -618 0
620 -618 0
-620 618 0
-621 622 0
623 622 0
621 -623 -622 0
624 -622 0
-624 622 0
-625 626 0
627 626 0
625 -627 -626 0
628 -626 0
-628 626 0
-629 630 0
631 630 0
629 -631 -630 0
632 -630 0
-632 630 0
-633 634 0
635 634 0
633 -635 -634 0
636 -634 0
-636 634 0
-637 638 0
639 638 0
637 -639 -638 0
640 -638 0
-640 638 0
-641 642 0
643 642 0
641 -643 -642 0
644 -642 0
-644 642 0
-645 646 0
647 646 0
645 -647 -646 0
648 -646 0
-648 646 0
-649 650 0
651 650 0
649 -651 -650 0
652 -650 0
-652 650 0
-653 654 0
655 654 0
653 -655 -654 0
656 -654 0
-656 654 0
-657 658 0
659 658 0
657 -659 -658 0
660 -658 0
-660 658 0
-661 662 0
663 662 0
661 -663 -662 0
664 -662 0
-664 662 0
-665 666 0
667 666 0
665 -667 -666 0
668 -666 0
-668 666 0
-669 670 0
671 670 0
669 -671 -670 0
672 -670 0
-672 670 0
-673 674 0
675 674 0
673 -675 -674 0
676 -674 0
-676 674 0
-677 678 0
679 678 0
677 -679 -678 0
680 -678 0
-680 678 0
-681 682 0
683 682 0
681 -683 -682 0
684 -682 0
-684 682 0
-685 686 0
687 686 0
685 -687 -686 0
688 -686 0
-688 686 0
-689 690 0
691 690 0
689 -691 -690 0
692 -690 0
-692 690 0
-693 694 0
695 694 0
693 -695 -694 0
696 -694 0
-696 694 0
-697 698 0
699 698 0
697 -699 -698 0
700 -698 0
-700 698 0
-701 702 0
703 702 0
701 -703 -702 0
704 -702 0
-704 702 0
-705 706 0
707 706 0
705 -707 -706 0
708 -706 0
-708 706 0
-709 710 0
711 710 0
709 -711 -710 0
712 -710 0
-712 710 0
-713 714 0
715 714 0
713 -715 -714 0
716 -714 0
-716 714 0
-717 718 0
719 718 0
717 -719 -718 0
720 -718 0
-720 718 0
-721 722 0
723 722 0
721 -723 -722 0
724 -722 0
-724 722 0
-725 726 0
727 726 0
725 -727 -726 0
728 -726 0
-728 726 0
-729 730 0
731 730 0
729 -731 -730 0
732 -730 0
-732 730 0
-733 734 0
735 734 0
733 -735 -734 0
736 -734 0
-736 734 0
-737 738 0
739 738 0
737 -739 -738 0
740 -738 0
-740 738 0
-741 742 0
743 742 0
741 -743 -742 0
744 -742 0
-744 742 0
-745 746 0
747 746 0
745 -747 -746 0
748 -746 0
-748 746 0
-749 750 0
751 750 0
749 -751 -750 0
752 -750 0
-752 750 0
-753 754 0
755 754 0
753 -755 -754 0
756 -754 0
-756 754 0
-757 758 0
759 758 0
757 -759 -758 0
760 -758 0
-760 758 0
-761 762 0
763 762 0
761 -763 -762 0
764 -762 0
-764 762 0
-765 766 0
767 766 0
765 -767 -766 0
768 -766 0
-768 766 0
-769 770 0
771 770 0
769 -771 -770 0
772 -770 0
-772 770 0
-773 774 0
775 774 0
773 -775 -774 0
776 -774 0
-776 774 0
-777 778 0
-779 -5 778 0
777 779 -778 0
5 777 -778 0
1 -778 0
-1 778 0
-780 781 0
-9 -782 781 0
9 780 -781 0
780 782 -781 0
5 -781 0
-5 781 0
-783 784 0
-13 -785 784 0
13 783 -784 0
783 785 -784 0
9 -784 0
-9 784 0
-786 787 0
-17 -788 787 0
17 786 -787 0
786 788 -787 0
13 -787 0
-13 787 0
-789 790 0
-21 -791 790 0
21 789 -790 0
789 791 -790 0
17 -790 0
-17 790 0
-792 793 0
-25 -794 793 0
25 792 -793 0
792 794 -793 0
21 -793 0
-21 793 0
-795 796 0
-797 -29 796 0
795 797 -796 0
29 795 -796 0
25 -796 0
-25 796 0
798 799 0
795 799 0
788 799 0
791 799 0
794 799 0
-800 0
-801 802 0
-798 -786 802 0
-798 -789 -788 802 0
-803 0
799 802 0
798 801 -799 -802 0
786 798 801 -799 -802 0
789 798 801 -799 -802 0
804 0
788 798 801 -799 -802 0
805 0
792 798 801 -799 -802 0
806 0
807 0
808 0
809 0
810 0
811 0
812 0
786 788 801 -799 -802 0
791 798 801 -799 -802 0
813 0
814 0
815 0
816 0
817 0
29 -802 0
-29 802 0
-818 819 0
-37 -820 819 0
37 818 -819 0
818 820 -819 0
33 -819 0
-33 819 0
-821 822 0
-41 -823 822 0
41 821 -822 0
821 823 -822 0
37 -822 0
-37 822 0
-824 825 0
-45 -826 825 0
45 824 -825 0
824 826 -825 0
41 -825 0
-41 825 0
-827 828 0
-829 -49 828 0
827 829 -828 0
49 827 -828 0
45 -828 0
-45 828 0
-830 831 0
-832 -53 831 0
830 832 -831 0
53 830 -831 0
49 -831 0
-49 831 0
-833 834 0
-57 -835 834 0
57 833 -834 0
833 835 -834 0
53 -834 0
-53 834 0
-836 837 0
-838 -61 837 0
836 838 -837 0
61 836 -837 0
57 -837 0
-57 837 0
-839 840 0
-841 -65 840 0
839 841 -840 0
65 839 -840 0
61 -840 0
-61 840 0
832 842 0
838 842 0
839 842 0
835 842 0
843 842 0
-844 0
-845 846 0
-830 -843 846 0
-832 -833 -843 846 0
-847 0
842 846 0
830 832 845 -842 -846 0
832 843 845 -842 -846 0
848 0
849 0
850 0
851 0
852 0
853 0
854 0
855 0
836 843 845 -842 -846 0
856 0
857 0
858 0
859 0
860 0
835 843 845 -842 -846 0
861 0
833 843 845 -842 -846 0
830 843 845 -842 -846 0
843 845 -842 -846 0
65 -846 0
-65 846 0
-862 863 0
-864 -73 863 0
862 864 -863 0
73 862 -863 0
69 -863 0
-69 863 0
-865 866 0
-77 -867 866 0
77 865 -866 0
865 867 -866 0
73 -866 0
-73 866 0
-868 869 0
-81 -870 869 0
81 868 -869 0
868 870 -869 0
77 -869 0
-77 869 0
-871 872 0
-85 -873 872 0
85 871 -872 0
871 873 -872 0
81 -872 0
-81 872 0
-874 875 0
-89 -876 875 0
89 874 -875 0
874 876 -875 0
85 -875 0
-85 875 0
-877 878 0
-93 -879 878 0
93 877 -878 0
877 879 -878 0
89 -878 0
-89 878 0
-880 881 0
-882 -97 881 0
880 882 -881 0
97 880 -881 0
93 -881 0
-93 881 0
-883 884 0
-885 -101 884 0
883 885 -884 0
101 883 -884 0
97 -884 0
-97 884 0
-886 887 0
-888 -105 887 0
886 888 -887 0
105 886 -887 0
101 -887 0
-101 887 0
-889 890 0
-109 -891 890 0
109 889 -890 0
889 891 -890 0
105 -890 0
-105 890 0
882 892 0
885 892 0
888 892 0
893 892 0
889 892 0
879 892 0
-894 0
882 895 0
885 895 0
893 895 0
886 895 0
879 895 0
-896 0
-897 898 0
-893 -877 898 0
-893 -880 -879 898 0
-899 0
895 898 0
892 898 0
900 0
901 0
902 0
903 0
904 0
905 0
893 897 -892 -895 -898 0
906 0
907 0
908 0
909 0
910 0
911 0
912 0
913 0
914 0
915 0
916 0
917 0
918 0
919 0
109 -898 0
-109 898 0
-920 921 0
-117 -922 921 0
117 920 -921 0
920 922 -921 0
113 -921 0
-113 921 0
-923 924 0
-925 -121 924 0
923 925 -924 0
121 923 -924 0
117 -924 0
-117 924 0
-926 927 0
-928 -125 927 0
926 928 -927 0
125 926 -927 0
121 -927 0
-121 927 0
-929 930 0
-931 -129 930 0
929 931 -930 0
129 929 -930 0
125 -930 0
-125 930 0
-932 933 0
-133 -934 933 0
133 932 -933 0
932 934 -933 0
129 -933 0
-129 933 0
-935 936 0
-937 -137 936 0
935 937 -936 0
137 935 -936 0
133 -936 0
-133 936 0
-938 939 0
-940 -141 939 0
938 940 -939 0
141 938 -939 0
137 -939 0
-137 939 0
-941 942 0
-943 -145 942 0
941 943 -942 0
145 941 -942 0
141 -942 0
-141 942 0
-944 945 0
-149 -946 945 0
149 944 -945 0
944 946 -945 0
145 -945 0
-145 945 0
-947 948 0
-153 -949 948 0
153 947 -948 0
947 949 -948 0
149 -948 0
-149 948 0
937 950 0
940 950 0
943 950 0
951 950 0
947 950 0
946 950 0
-952 0
937 953 0
940 953 0
943 953 0
951 953 0
944 953 0
-954 0
-955 956 0
-951 -935 956 0
-937 -951 -938 956 0
-957 0
953 956 0
950 956 0
958 0
959 0
960 0
961 0
962 0
963 0
964 0
965 0
966 0
967 0
968 0
951 955 -950 -953 -956 0
969 0
970 0
971 0
972 0
973 0
974 0
975 0
976 0
977 0
153 -956 0
-153 956 0
-978 979 0
-980 -161 979 0
978 980 -979 0
161 978 -979 0
157 -979 0
-157 979 0
-981 982 0
-165 -983 982 0
165 981 -982 0
981 983 -982 0
161 -982 0
-161 982 0
-984 985 0
-986 -169 985 0
984 986 -985 0
169 984 -985 0
165 -985 0
-165 985 0
-987 988 0
-173 -989 988 0
173 987 -988 0
987 989 -988 0
169 -988 0
-169 988 0
-990 991 0
-981 -992 991 0
-984 -983 -992 991 0
-993 0
981 984 986 990 -991 0
984 986 992 990 -991 0
981 983 986 990 -991 0
983 986 992 990 -991 0
981 986 992 990 -991 0
986 992 990 -991 0
981 984 987 990 -991 0
984 987 992 990 -991 0
981 983 987 990 -991 0
983 987 992 990 -991 0
981 987 992 990 -991 0
987 992 990 -991 0
981 983 984 990 -991 0
983 984 992 990 -991 0
981 983 990 -991 0
983 992 990 -991 0
981 983 992 990 -991 0
981 984 992 990 -991 0
984 992 990 -991 0
981 992 990 -991 0
992 990 -991 0
173 -991 0
-173 991 0
-994 995 0
-181 -996 995 0
181 994 -995 0
994 996 -995 0
177 -995 0
-177 995 0
-997 998 0
-999 -185 998 0
997 999 -998 0
185 997 -998 0
181 -998 0
-181 998 0
-1000 1001 0
-189 -1002 1001 0
189 1000 -1001 0
1000 1002 -1001 0
185 -1001 0
-185 1001 0
-1003 1004 0
-1005 -193 1004 0
1003 1005 -1004 0
193 1003 -1004 0
189 -1004 0
-189 1004 0
-1006 1007 0
-197 -1008 1007 0
197 1006 -1007 0
1006 1008 -1007 0
193 -1007 0
-193 1007 0
-1009 1010 0
-1011 -201 1010 0
1009 1011 -1010 0
201 1009 -1010 0
197 -1010 0
-197 1010 0
999 1012 0
1005 1012 0
1013 1012 0
1009 1012 0
1002 1012 0
1008 1012 0
-1014 0
999 1015 0
1005 1015 0
1013 1015 0
1006 1015 0
1002 1015 0
-1016 0
-1017 1018 0
-1013 -997 1018 0
-999 -1013 -1000 1018 0
-1019 0
1015 1018 0
1012 1018 0
1020 0
1021 0
1022 0
1023 0
1024 0
1013 1017 -1012 -1015 -1018 0
1025 0
1026 0
1027 0
1028 0
1029 0
1030 0
1031 0
1032 0
1033 0
1034 0
1035 0
1036 0
1037 0
1038 0
1039 0
201 -1018 0
-201 1018 0
-1040 1041 0
-1042 -209 1041 0
1040 1042 -1041 0
209 1040 -1041 0
205 -1041 0
-205 1041 0
-1043 1044 0
-213 -1045 1044 0
213 1043 -1044 0
1043 1045 -1044 0
209 -1044 0
-209 1044 0
-1046 1047 0
-217 -1048 1047 0
217 1046 -1047 0
1046 1048 -1047 0
213 -1047 0
-213 1047 0
-1049 1050 0
-221 -1051 1050 0
221 1049 -1050 0
1049 1051 -1050 0
217 -1050 0
-217 1050 0
-1052 1053 0
-225 -1054 1053 0
225 1052 -1053 0
1052 1054 -1053 0
221 -1053 0
-221 1053 0
-1055 1056 0
-229 -1057 1056 0
229 1055 -1056 0
1055 1057 -1056 0
225 -1056 0
-225 1056 0
-1058 1059 0
-1060 -233 1059 0
1058 1060 -1059 0
233 1058 -1059 0
229 -1059 0
-229 1059 0
-1061 1062 0
-237 -1063 1062 0
237 1061 -1062 0
1061 1063 -1062 0
233 -1062 0
-233 1062 0
-1064 1065 0
-241 -1066 1065 0
241 1064 -1065 0
1064 1066 -1065 0
237 -1065 0
-237 1065 0
-1067 1068 0
-245 -1069 1068 0
245 1067 -1068 0
1067 1069 -1068 0
241 -1068 0
-241 1068 0
1060 1070 0
1071 1070 0
1067 1070 0
1063 1070 0
1066 1070 0
-1072 0
-1073 1074 0
-1071 -1058 1074 0
-1060 -1071 -1061 1074 0
-1075 0
1070 1074 0
1060 1071 1073 -1070 -1074 0
1058 1060 1073 -1070 -1074 0
1076 0
1077 0
1078 0
1071 1073 -1070 -1074 0
1058 1071 1073 -1070 -1074 0
1061 1071 1073 -1070 -1074 0
1079 0
1080 0
1081 0
1064 1071 1073 -1070 -1074 0
1082 0
1083 0
1084 0
1085 0
1086 0
1063 1071 1073 -1070 -1074 0
1087 0
1088 0
1089 0
245 -1074 0
-245 1074 0
-1090 1091 0
-253 -1092 1091 0
253 1090 -1091 0
1090 1092 -1091 0
249 -1091 0
-249 1091 0
-1093 1094 0
-1095 -257 1094 0
1093 1095 -1094 0
257 1093 -1094 0
253 -1094 0
-253 1094 0
-1096 1097 0
-1098 -261 1097 0
1096 1098 -1097 0
261 1096 -1097 0
257 -1097 0
-257 1097 0
-1099 1100 0
-1101 -265 1100 0
1099 1101 -1100 0
265 1099 -1100 0
261 -1100 0
-261 1100 0
-1102 1103 0
-1104 -269 1103 0
1102 1104 -1103 0
269 1102 -1103 0
265 -1103 0
-265 1103 0
-1105 1106 0
-273 -1107 1106 0
273 1105 -1106 0
1105 1107 -1106 0
269 -1106 0
-269 1106 0
-1108 1109 0
-277 -1110 1109 0
277 1108 -1109 0
1108 1110 -1109 0
273 -1109 0
-273 1109 0
-1111 1112 0
-1113 -281 1112 0
1111 1113 -1112 0
281 1111 -1112 0
277 -1112 0
-277 1112 0
-1114 1115 0
-1116 -285 1115 0
1114 1116 -1115 0
285 1114 -1115 0
281 -1115 0
-281 1115 0
-1117 1118 0
-1119 -289 1118 0
1117 1119 -1118 0
289 1117 -1118 0
285 -1118 0
-285 1118 0
1113 1120 0
1116 1120 0
1121 1120 0
1117 1120 0
1110 1120 0
-1122 0
-1123 1124 0
-1121 -1108 1124 0
-1121 -1111 -1110 1124 0
-1125 0
1120 1124 0
1113 1121 1123 -1120 -1124 0
1126 0
1127 0
1128 0
1129 0
1130 0
1121 1123 -1120 -1124 0
1108 1121 1123 -1120 -1124 0
1111 1121 1123 -1120 -1124 0
1131 0
1110 1121 1123 -1120 -1124 0
1132 0
1114 1121 1123 -1120 -1124 0
1133 0
1134 0
1135 0
1136 0
1137 0
1138 0
1139 0
1108 1110 1123 -1120 -1124 0
289 -1124 0
-289 1124 0
-1140 1141 0
-1142 -297 1141 0
1140 1142 -1141 0
297 1140 -1141 0
293 -1141 0
-293 1141 0
-1143 1144 0
-1145 -301 1144 0
1143 1145 -1144 0
301 1143 -1144 0
297 -1144 0
-297 1144 0
-1146 1147 0
-305 -1148 1147 0
305 1146 -1147 0
1146 1148 -1147 0
301 -1147 0
-301 1147 0
-1149 1150 0
-309 -1151 1150 0
309 1149 -1150 0
1149 1151 -1150 0
305 -1150 0
-305 1150 0
-1152 1153 0
-1154 -313 1153 0
1152 1154 -1153 0
313 1152 -1153 0
309 -1153 0
-309 1153 0
-1155 1156 0
-1157 -317 1156 0
1155 1157 -1156 0
317 1155 -1156 0
313 -1156 0
-313 1156 0
-1158 1159 0
-1160 -321 1159 0
1158 1160 -1159 0
321 1158 -1159 0
317 -1159 0
-317 1159 0
-1161 1162 0
-325 -1163 1162 0
325 1161 -1162 0
1161 1163 -1162 0
321 -1162 0
-321 1162 0
-1164 1165 0
-1166 -329 1165 0
1164 1166 -1165 0
329 1164 -1165 0
325 -1165 0
-325 1165 0
-1167 1168 0
-333 -1169 1168 0
333 1167 -1168 0
1167 1169 -1168 0
329 -1168 0
-329 1168 0
-1170 1171 0
-337 -1172 1171 0
337 1170 -1171 0
1170 1172 -1171 0
333 -1171 0
-333 1171 0
1160 1173 0
1166 1173 0
1170 1173 0
1163 1173 0
1169 1173 0
1174 1173 0
-1175 0
1160 1176 0
1166 1176 0
1167 1176 0
1163 1176 0
1174 1176 0
-1177 0
-1178 1179 0
-1158 -1174 1179 0
-1160 -1161 -1174 1179 0
-1180 0
1176 1179 0
1173 1179 0
1181 0
1182 0
1183 0
1184 0
1185 0
1186 0
1187 0
1188 0
1189 0
1190 0
1191 0
1192 0
1193 0
1194 0
1195 0
1196 0
1197 0
1198 0
1199 0
1200 0
1174 1178 -1173 -1176 -1179 0
337 -1179 0
-337 1179 0
-1201 1202 0
-1203 -345 1202 0
1201 1203 -1202 0
345 1201 -1202 0
341 -1202 0
-341 1202 0
-1204 1205 0
-349 -1206 1205 0
349 1204 -1205 0
1204 1206 -1205 0
345 -1205 0
-345 1205 0
-1207 1208 0
-353 -1209 1208 0
353 1207 -1208 0
1207 1209 -1208 0
349 -1208 0
-349 1208 0
-1210 1211 0
-357 -1212 1211 0
357 1210 -1211 0
1210 1212 -1211 0
353 -1211 0
-353 1211 0
-1213 1214 0
-361 -1215 1214 0
361 1213 -1214 0
1213 1215 -1214 0
357 -1214 0
-357 1214 0
-1216 1217 0
-365 -1218 1217 0
365 1216 -1217 0
1216 1218 -1217 0
361 -1217 0
-361 1217 0
-1219 1220 0
-369 -1221 1220 0
369 1219 -1220 0
1219 1221 -1220 0
365 -1220 0
-365 1220 0
-1222 1223 0
-373 -1224 1223 0
373 1222 -1223 0
1222 1224 -1223 0
369 -1223 0
-369 1223 0
-1225 1226 0
-1227 -1216 1226 0
-1227 -1219 -1218 1226 0
-1228 0
1227 1225 -1226 0
1216 1227 1225 -1226 0
1219 1227 1225 -1226 0
1216 1219 1227 1225 -1226 0
1218 1227 1225 -1226 0
1216 1218 1227 1225 -1226 0
1222 1227 1225 -1226 0
1216 1222 1227 1225 -1226 0
1219 1222 1227 1225 -1226 0
1216 1219 1222 1225 -1226 0
1218 1222 1227 1225 -1226 0
1216 1218 1222 1225 -1226 0
1218 1219 1227 1225 -1226 0
1216 1218 1219 1225 -1226 0
1216 1218 1225 -1226 0
1221 1227 1225 -1226 0
1216 1221 1227 1225 -1226 0
1219 1221 1227 1225 -1226 0
1216 1219 1221 1225 -1226 0
1218 1221 1227 1225 -1226 0
1216 1218 1221 1225 -1226 0
373 -1226 0
-373 1226 0
-1229 1230 0
-1231 -381 1230 0
1229 1231 -1230 0
381 1229 -1230 0
377 -1230 0
-377 1230 0
-1232 1233 0
-385 -1234 1233 0
385 1232 -1233 0
1232 1234 -1233 0
381 -1233 0
-381 1233 0
-1235 1236 0
-1237 -389 1236 0
1235 1237 -1236 0
389 1235 -1236 0
385 -1236 0
-385 1236 0
1238 -1239 0
-1240 -393 1238 0
1239 1240 -1238 0
393 1239 -1238 0
389 -1238 0
-389 1238 0
-1241 1242 0
-1243 -397 1242 0
1241 1243 -1242 0
397 1241 -1242 0
393 -1242 0
-393 1242 0
-1244 1245 0
-401 -1246 1245 0
401 1244 -1245 0
1244 1246 -1245 0
397 -1245 0
-397 1245 0
-1247 1248 0
-405 -1249 1248 0
405 1247 -1248 0
1247 1249 -1248 0
401 -1248 0
-401 1248 0
-1250 1251 0
-409 -1252 1251 0
409 1250 -1251 0
1250 1252 -1251 0
405 -1251 0
-405 1251 0
-1253 1254 0
-413 -1255 1254 0
413 1253 -1254 0
1253 1255 -1254 0
409 -1254 0
-409 1254 0
1243 1256 0
1257 1256 0
1253 1256 0
1246 1256 0
1249 1256 0
1252 1256 0
-1258 0
1243 1259 0
1257 1259 0
1250 1259 0
1246 1259 0
1249 1259 0
-1260 0
-1261 1262 0
-1257 -1241 1262 0
-1243 -1257 -1244 1262 0
-1263 0
1259 1262 0
1256 1262 0
1264 0
1265 0
1266 0
1267 0
1268 0
1257 1261 -1256 -1259 -1262 0
1269 0
1270 0
1271 0
1272 0
1273 0
1274 0
1275 0
1276 0
1277 0
1278 0
1279 0
1280 0
1281 0
1282 0
1283 0
413 -1262 0
-413 1262 0
-1284 1285 0
-421 -1286 1285 0
421 1284 -1285 0
1284 1286 -1285 0
417 -1285 0
-417 1285 0
-1287 1288 0
-425 -1289 1288 0
425 1287 -1288 0
1287 1289 -1288 0
421 -1288 0
-421 1288 0
-1290 1291 0
-1292 -429 1291 0
1290 1292 -1291 0
429 1290 -1291 0
425 -1291 0
-425 1291 0
-1293 1294 0
-1295 -433 1294 0
1293 1295 -1294 0
433 1293 -1294 0
429 -1294 0
-429 1294 0
1296 -1297 0
-1298 -437 1296 0
1297 1298 -1296 0
437 1297 -1296 0
433 -1296 0
-433 1296 0
-1299 1300 0
-1301 -441 1300 0
1299 1301 -1300 0
441 1299 -1300 0
437 -1300 0
-437 1300 0
-1302 1303 0
-1304 -445 1303 0
1302 1304 -1303 0
445 1302 -1303 0
441 -1303 0
-441 1303 0
-1305 1306 0
-449 -1307 1306 0
449 1305 -1306 0
1305 1307 -1306 0
445 -1306 0
-445 1306 0
-1308 1309 0
-453 -1310 1309 0
453 1308 -1309 0
1308 1310 -1309 0
449 -1309 0
-449 1309 0
-1311 1312 0
-457 -1313 1312 0
457 1311 -1312 0
1311 1313 -1312 0
453 -1312 0
-453 1312 0
-1314 1315 0
-1316 -461 1315 0
1314 1316 -1315 0
461 1314 -1315 0
457 -1315 0
-457 1315 0
1304 1317 0
1307 1317 0
1310 1317 0
1313 1317 0
1318 1317 0
1314 1317 0
-1319 0
1304 1320 0
1307 1320 0
1310 1320 0
1318 1320 0
1311 1320 0
-1321 0
1322 -1323 0
-1302 -1318 1322 0
-1304 -1318 -1305 1322 0
-1324 0
1320 1322 0
1317 1322 0
1325 0
1326 0
1327 0
1328 0
1329 0
1330 0
1331 0
1332 0
1333 0
1334 0
1335 0
1336 0
1318 1323 -1317 -1320 -1322 0
1337 0
1338 0
1339 0
1340 0
1341 0
1342 0
1343 0
1344 0
461 -1322 0
-461 1322 0
-1345 1346 0
-469 -1347 1346 0
469 1345 -1346 0
1345 1347 -1346 0
465 -1346 0
-465 1346 0
-1348 1349 0
-473 -1350 1349 0
473 1348 -1349 0
1348 1350 -1349 0
469 -1349 0
-469 1349 0
-1351 1352 0
-1353 -477 1352 0
1351 1353 -1352 0
477 1351 -1352 0
473 -1352 0
-473 1352 0
-1354 1355 0
-1356 -481 1355 0
1354 1356 -1355 0
481 1354 -1355 0
477 -1355 0
-477 1355 0
-1357 1358 0
-1359 -485 1358 0
1357 1359 -1358 0
485 1357 -1358 0
481 -1358 0
-481 1358 0
-1360 1361 0
-489 -1362 1361 0
489 1360 -1361 0
1360 1362 -1361 0
485 -1361 0
-485 1361 0
1363 -1364 0
-1354 -1365 1363 0
-1356 -1365 -1357 1363 0
-1366 0
1354 1356 1364 -1363 0
1356 1365 1364 -1363 0
1354 1356 1365 1364 -1363 0
1354 1356 1357 1364 -1363 0
1356 1357 1365 1364 -1363 0
1354 1356 1359 1364 -1363 0
1356 1359 1365 1364 -1363 0
1354 1359 1365 1364 -1363 0
1359 1365 1364 -1363 0
1354 1357 1359 1364 -1363 0
1357 1359 1365 1364 -1363 0
1354 1365 1364 -1363 0
1365 1364 -1363 0
1354 1357 1365 1364 -1363 0
1357 1365 1364 -1363 0
1354 1356 1360 1364 -1363 0
1356 1360 1365 1364 -1363 0
1354 1360 1365 1364 -1363 0
1360 1365 1364 -1363 0
1354 1357 1360 1364 -1363 0
1357 1360 1365 1364 -1363 0
489 -1363 0
-489 1363 0
-1367 1368 0
-497 -1369 1368 0
497 1367 -1368 0
1367 1369 -1368 0
493 -1368 0
-493 1368 0
-1370 1371 0
-501 -1372 1371 0
501 1370 -1371 0
1370 1372 -1371 0
497 -1371 0
-497 1371 0
-1373 1374 0
-505 -1375 1374 0
505 1373 -1374 0
1373 1375 -1374 0
501 -1374 0
-501 1374 0
-1376 1377 0
-1378 -509 1377 0
1376 1378 -1377 0
509 1376 -1377 0
505 -1377 0
-505 1377 0
-1379 1380 0
-513 -1381 1380 0
513 1379 -1380 0
1379 1381 -1380 0
509 -1380 0
-509 1380 0
1382 -1383 0
-1384 -517 1382 0
1383 1384 -1382 0
517 1383 -1382 0
513 -1382 0
-513 1382 0
-1385 1386 0
-521 -1387 1386 0
521 1385 -1386 0
1385 1387 -1386 0
517 -1386 0
-517 1386 0
-1388 1389 0
-525 -1390 1389 0
525 1388 -1389 0
1388 1390 -1389 0
521 -1389 0
-521 1389 0
-1391 1392 0
-529 -1393 1392 0
529 1391 -1392 0
1391 1393 -1392 0
525 -1392 0
-525 1392 0
1394 -1395 0
-1385 -1396 1394 0
-1387 -1396 -1388 1394 0
-1397 0
1385 1387 1391 1395 -1394 0
1387 1391 1396 1395 -1394 0
1385 1391 1396 1395 -1394 0
1391 1396 1395 -1394 0
1385 1388 1391 1395 -1394 0
1388 1391 1396 1395 -1394 0
1385 1387 1395 -1394 0
1387 1396 1395 -1394 0
1385 1387 1396 1395 -1394 0
1385 1387 1388 1395 -1394 0
1387 1388 1396 1395 -1394 0
1385 1387 1390 1395 -1394 0
1387 1390 1396 1395 -1394 0
1385 1390 1396 1395 -1394 0
1390 1396 1395 -1394 0
1385 1388 1390 1395 -1394 0
1388 1390 1396 1395 -1394 0
1385 1396 1395 -1394 0
1396 1395 -1394 0
1385 1388 1396 1395 -1394 0
1388 1396 1395 -1394 0
529 -1394 0
-529 1394 0
-1398 1399 0
-1400 -537 1399 0
1398 1400 -1399 0
537 1398 -1399 0
533 -1399 0
-533 1399 0
1401 -1402 0
-541 -1403 1401 0
541 1402 -1401 0
1402 1403 -1401 0
537 -1401 0
-537 1401 0
1404 -1405 0
-1406 -545 1404 0
1405 1406 -1404 0
545 1405 -1404 0
541 -1404 0
-541 1404 0
1407 -1408 0
-1409 -549 1407 0
1408 1409 -1407 0
549 1408 -1407 0
545 -1407 0
-545 1407 0
1410 -1411 0
-553 -1412 1410 0
553 1411 -1410 0
1411 1412 -1410 0
549 -1410 0
-549 1410 0
-1413 1414 0
-1415 -557 1414 0
1413 1415 -1414 0
557 1413 -1414 0
553 -1414 0
-553 1414 0
-1416 1417 0
-1418 -561 1417 0
1416 1418 -1417 0
561 1416 -1417 0
557 -1417 0
-557 1417 0
-1419 1420 0
-1421 -565 1420 0
1419 1421 -1420 0
565 1419 -1420 0
561 -1420 0
-561 1420 0
-1422 1423 0
-569 -1424 1423 0
569 1422 -1423 0
1422 1424 -1423 0
565 -1423 0
-565 1423 0
-1425 1426 0
-573 -1427 1426 0
573 1425 -1426 0
1425 1427 -1426 0
569 -1426 0
-569 1426 0
1415 1428 0
1418 1428 0
1421 1428 0
1425 1428 0
1424 1428 0
1429 1428 0
-1430 0
1415 1431 0
1418 1431 0
1421 1431 0
1422 1431 0
1429 1431 0
-1432 0
-1433 1434 0
-1413 -1429 1434 0
-1415 -1416 -1429 1434 0
-1435 0
1431 1434 0
1428 1434 0
1436 0
1437 0
1438 0
1439 0
1440 0
1441 0
1442 0
1443 0
1444 0
1445 0
1446 0
1447 0
1448 0
1449 0
1429 1433 -1428 -1431 -1434 0
1450 0
1451 0
1452 0
1453 0
1454 0
1455 0
573 -1434 0
-573 1434 0
-1456 1457 0
-1458 -581 1457 0
1456 1458 -1457 0
581 1456 -1457 0
577 -1457 0
-577 1457 0
-1459 1460 0
-1461 -585 1460 0
1459 1461 -1460 0
585 1459 -1460 0
581 -1460 0
-581 1460 0
1462 -1463 0
-589 -1464 1462 0
589 1463 -1462 0
1463 1464 -1462 0
585 -1462 0
-585 1462 0
-1465 1466 0
-593 -1467 1466 0
593 1465 -1466 0
1465 1467 -1466 0
589 -1466 0
-589 1466 0
-1468 1469 0
-1470 -597 1469 0
1468 1470 -1469 0
597 1468 -1469 0
593 -1469 0
-593 1469 0
-1471 1472 0
-1473 -601 1472 0
1471 1473 -1472 0
601 1471 -1472 0
597 -1472 0
-597 1472 0
-1474 1475 0
-1476 -605 1475 0
1474 1476 -1475 0
605 1474 -1475 0
601 -1475 0
-601 1475 0
1470 1477 0
1473 1477 0
1474 1477 0
1467 1477 0
1478 1477 0
-1479 0
-1480 1481 0
-1465 -1478 1481 0
-1468 -1467 -1478 1481 0
-1482 0
1477 1481 0
1483 0
1484 0
1485 0
1486 0
1487 0
1470 1478 1480 -1477 -1481 0
1488 0
1489 0
1490 0
1491 0
1492 0
1471 1478 1480 -1477 -1481 0
1493 0
1494 0
1465 1467 1480 -1477 -1481 0
1467 1478 1480 -1477 -1481 0
1495 0
1496 0
1468 1478 1480 -1477 -1481 0
1465 1478 1480 -1477 -1481 0
1478 1480 -1477 -1481 0
605 -1481 0
-605 1481 0
-1497 1498 0
-1499 -613 1498 0
1497 1499 -1498 0
613 1497 -1498 0
609 -1498 0
-609 1498 0
1500 -1501 0
-617 -1502 1500 0
617 1501 -1500 0
1501 1502 -1500 0
613 -1500 0
-613 1500 0
1503 -1504 0
-621 -1505 1503 0
621 1504 -1503 0
1504 1505 -1503 0
617 -1503 0
-617 1503 0
-1506 1507 0
-625 -1508 1507 0
625 1506 -1507 0
1506 1508 -1507 0
621 -1507 0
-621 1507 0
1509 -1510 0
-1511 -629 1509 0
1510 1511 -1509 0
629 1510 -1509 0
625 -1509 0
-625 1509 0
1512 -1513 0
-633 -1514 1512 0
633 1513 -1512 0
1513 1514 -1512 0
629 -1512 0
-629 1512 0
-1515 1516 0
-1517 -637 1516 0
1515 1517 -1516 0
637 1515 -1516 0
633 -1516 0
-633 1516 0
-1518 1519 0
-1520 -641 1519 0
1518 1520 -1519 0
641 1518 -1519 0
637 -1519 0
-637 1519 0
-1521 1522 0
-645 -1523 1522 0
645 1521 -1522 0
1521 1523 -1522 0
641 -1522 0
-641 1522 0
-1524 1525 0
-1526 -649 1525 0
1524 1526 -1525 0
649 1524 -1525 0
645 -1525 0
-645 1525 0
-1527 1528 0
-1529 -653 1528 0
1527 1529 -1528 0
653 1527 -1528 0
649 -1528 0
-649 1528 0
1517 1530 0
1520 1530 0
1526 1530 0
1531 1530 0
1523 1530 0
1527 1530 0
-1532 0
1517 1533 0
1520 1533 0
1531 1533 0
1523 1533 0
1524 1533 0
-1534 0
1535 -1536 0
-1531 -1515 1535 0
-1517 -1531 -1518 1535 0
-1537 0
1533 1535 0
1530 1535 0
1538 0
1539 0
1540 0
1541 0
1542 0
1543 0
1544 0
1545 0
1546 0
1547 0
1548 0
1531 1536 -1530 -1533 -1535 0
1549 0
1550 0
1551 0
1552 0
1553 0
1554 0
1555 0
1556 0
1557 0
653 -1535 0
-653 1535 0
-1558 1559 0
-1560 -661 1559 0
1558 1560 -1559 0
661 1558 -1559 0
657 -1559 0
-657 1559 0
-1561 1562 0
-1563 -665 1562 0
1561 1563 -1562 0
665 1561 -1562 0
661 -1562 0
-661 1562 0
-1564 1565 0
-1566 -669 1565 0
1564 1566 -1565 0
669 1564 -1565 0
665 -1565 0
-665 1565 0
-1567 1568 0
-673 -1569 1568 0
673 1567 -1568 0
1567 1569 -1568 0
669 -1568 0
-669 1568 0
1570 -1571 0
-1572 -677 1570 0
1571 1572 -1570 0
677 1571 -1570 0
673 -1570 0
-673 1570 0
-1573 1574 0
-1575 -681 1574 0
1573 1575 -1574 0
681 1573 -1574 0
677 -1574 0
-677 1574 0
-1576 1577 0
-685 -1578 1577 0
685 1576 -1577 0
1576 1578 -1577 0
681 -1577 0
-681 1577 0
-1579 1580 0
-1581 -689 1580 0
1579 1581 -1580 0
689 1579 -1580 0
685 -1580 0
-685 1580 0
-1582 1583 0
-1584 -693 1583 0
1582 1584 -1583 0
693 1582 -1583 0
689 -1583 0
-689 1583 0
-1585 1586 0
-1587 -697 1586 0
1585 1587 -1586 0
697 1585 -1586 0
693 -1586 0
-693 1586 0
1575 1588 0
1581 1588 0
1584 1588 0
1578 1588 0
1589 1588 0
1585 1588 0
-1590 0
1575 1591 0
1581 1591 0
1578 1591 0
1589 1591 0
1582 1591 0
-1592 0
1593 -1594 0
-1573 -1589 1593 0
-1575 -1589 -1576 1593 0
-1595 0
1591 1593 0
1588 1593 0
1596 0
1597 0
1598 0
1599 0
1600 0
1601 0
1602 0
1603 0
1604 0
1605 0
1606 0
1607 0
1589 1594 -1588 -1591 -1593 0
1608 0
1609 0
1610 0
1611 0
1612 0
1613 0
1614 0
1615 0
697 -1593 0
-697 1593 0
-1616 1617 0
-1618 -705 1617 0
1616 1618 -1617 0
705 1616 -1617 0
701 -1617 0
-701 1617 0
-1619 1620 0
-709 -1621 1620 0
709 1619 -1620 0
1619 1621 -1620 0
705 -1620 0
-705 1620 0
-1622 1623 0
-1624 -713 1623 0
1622 1624 -1623 0
713 1622 -1623 0
709 -1623 0
-709 1623 0
1625 -1626 0
-1627 -717 1625 0
1626 1627 -1625 0
717 1626 -1625 0
713 -1625 0
-713 1625 0
-1628 1629 0
-1630 -721 1629 0
1628 1630 -1629 0
721 1628 -1629 0
717 -1629 0
-717 1629 0
-1631 1632 0
-1633 -725 1632 0
1631 1633 -1632 0
725 1631 -1632 0
721 -1632 0
-721 1632 0
-1634 1635 0
-1636 -729 1635 0
1634 1636 -1635 0
729 1634 -1635 0
725 -1635 0
-725 1635 0
-1637 1638 0
-733 -1639 1638 0
733 1637 -1638 0
1637 1639 -1638 0
729 -1638 0
-729 1638 0
1630 1640 0
1633 1640 0
1636 1640 0
1641 1640 0
1637 1640 0
-1642 0
-1643 1644 0
-1641 -1628 1644 0
-1630 -1641 -1631 1644 0
-1645 0
1640 1644 0
1630 1641 1643 -1640 -1644 0
1628 1630 1643 -1640 -1644 0
1646 0
1647 0
1648 0
1649 0
1650 0
1633 1641 1643 -1640 -1644 0
1651 0
1652 0
1653 0
1641 1643 -1640 -1644 0
1628 1641 1643 -1640 -1644 0
1631 1641 1643 -1640 -1644 0
1654 0
1655 0
1656 0
1634 1641 1643 -1640 -1644 0
1657 0
1658 0
1659 0
733 -1644 0
-733 1644 0
-1660 1661 0
-1662 -741 1661 0
1660 1662 -1661 0
741 1660 -1661 0
737 -1661 0
-737 1661 0
-1663 1664 0
-745 -1665 1664 0
745 1663 -1664 0
1663 1665 -1664 0
741 -1664 0
-741 1664 0
-1666 1667 0
-749 -1668 1667 0
749 1666 -1667 0
1666 1668 -1667 0
745 -1667 0
-745 1667 0
1669 -1670 0
-753 -1671 1669 0
753 1670 -1669 0
1670 1671 -1669 0
749 -1669 0
-749 1669 0
-1672 1673 0
-757 -1674 1673 0
757 1672 -1673 0
1672 1674 -1673 0
753 -1673 0
-753 1673 0
-1675 1676 0
-761 -1677 1676 0
761 1675 -1676 0
1675 1677 -1676 0
757 -1676 0
-757 1676 0
-1678 1679 0
-1680 -765 1679 0
1678 1680 -1679 0
765 1678 -1679 0
761 -1679 0
-761 1679 0
-1681 1682 0
-769 -1683 1682 0
769 1681 -1682 0
1681 1683 -1682 0
765 -1682 0
-765 1682 0
-1684 1685 0
-1686 -773 1685 0
1684 1686 -1685 0
773 1684 -1685 0
769 -1685 0
-769 1685 0
1680 1687 0
1688 1687 0
1677 1687 0
1683 1687 0
1684 1687 0
-1689 0
1690 -1691 0
-1688 -1675 1690 0
-1688 -1677 -1678 1690 0
-1692 0
1687 1690 0
1680 1688 1691 -1687 -1690 0
1693 0
1694 0
1695 0
1696 0
1697 0
1688 1691 -1687 -1690 0
1675 1688 1691 -1687 -1690 0
1677 1688 1691 -1687 -1690 0
1698 0
1678 1688 1691 -1687 -1690 0
1699 0
1681 1688 1691 -1687 -1690 0
1700 0
1701 0
1702 0
1703 0
1704 0
1675 1677 1691 -1687 -1690 0
1705 0
1706 0
773 -1690 0
-773 1690 0
-779 0
782 0
785 0
788 0
791 0
794 0
-797 0
-798 0
820 0
823 0
826 0
-829 0
-832 0
835 0
-838 0
-841 0
843 0
-864 0
867 0
870 0
873 0
876 0
879 0
-882 0
-885 0
-888 0
891 0
-893 0
922 0
-925 0
-928 0
-931 0
934 0
-937 0
-940 0
-943 0
946 0
949 0
-951 0
-980 0
983 0
-986 0
989 0
992 0
996 0
-999 0
1002 0
-1005 0
1008 0
-1011 0
-1013 0
-1042 0
1045 0
1048 0
1051 0
1054 0
1057 0
-1060 0
1063 0
1066 0
1069 0
-1071 0
1092 0
-1095 0
-1098 0
-1101 0
-1104 0
1107 0
1110 0
-1113 0
-1116 0
-1119 0
-1121 0
-1142 0
-1145 0
1148 0
1151 0
-1154 0
-1157 0
-1160 0
1163 0
-1166 0
1169 0
1172 0
1174 0
-1203 0
1206 0
1209 0
1212 0
1215 0
1218 0
1221 0
1224 0
-1227 0
-1231 0
1234 0
-1237 0
-1240 0
-1243 0
1246 0
1249 0
1252 0
1255 0
-1257 0
1286 0
1289 0
-1292 0
-1295 0
-1298 0
-1301 0
-1304 0
1307 0
1310 0
1313 0
-1316 0
1318 0
1347 0
1350 0
-1353 0
-1356 0
-1359 0
1362 0
1365 0
1369 0
1372 0
1375 0
-1378 0
1381 0
-1384 0
1387 0
1390 0
1393 0
1396 0
-1400 0
1403 0
-1406 0
-1409 0
1412 0
-1415 0
-1418 0
-1421 0
1424 0
1427 0
1429 0
-1458 0
-1461 0
1464 0
1467 0
-1470 0
-1473 0
-1476 0
1478 0
-1499 0
1502 0
1505 0
1508 0
-1511 0
1514 0
-1517 0
-1520 0
1523 0
-1526 0
-1529 0
-1531 0
-1560 0
-1563 0
-1566 0
1569 0
-1572 0
-1575 0
1578 0
-1581 0
-1584 0
-1587 0
1589 0
-1618 0
1621 0
-1624 0
-1627 0
-1630 0
-1633 0
-1636 0
1639 0
-1641 0
-1662 0
1665 0
1668 0
1671 0
1674 0
1677 0
-1680 0
1683 0
-1686 0
-1688 0
-777 0
-780 0
-783 0
-786 0
-789 0
-792 0
-795 0
-801 0
-818 0
-821 0
-824 0
-827 0
-830 0
-833 0
-836 0
-839 0
-845 0
-862 0
-865 0
-868 0
-871 0
-874 0
-877 0
-880 0
-883 0
-886 0
-889 0
-897 0
-920 0
-923 0
-926 0
-929 0
-932 0
-935 0
-938 0
-941 0
-944 0
-947 0
-955 0
-978 0
-981 0
-984 0
-987 0
-990 0
-994 0
-997 0
-1000 0
-1003 0
-1006 0
-1009 0
-1017 0
-1040 0
-1043 0
-1046 0
-1049 0
-1052 0
-1055 0
-1058 0
-1061 0
-1064 0
-1067 0
-1073 0
-1090 0
-1093 0
-1096 0
-1099 0
-1102 0
-1105 0
-1108 0
-1111 0
-1114 0
-1117 0
-1123 0
-1140 0
-1143 0
-1146 0
-1149 0
-1152 0
-1155 0
-1158 0
-1161 0
-1164 0
-1167 0
-1170 0
-1178 0
-1201 0
-1204 0
-1207 0
-1210 0
-1213 0
-1216 0
-1219 0
-1222 0
-1225 0
-1229 0
-1232 0
-1235 0
1239 0
-1241 0
-1244 0
-1247 0
-1250 0
-1253 0
-1261 0
-1284 0
-1287 0
-1290 0
-1293 0
1297 0
-1299 0
-1302 0
1305 0
1308 0
1311 0
1314 0
1323 0
-1345 0
-1348 0
-1351 0
1354 0
1357 0
1360 0
1364 0
-1367 0
-1370 0
-1373 0
-1376 0
-1379 0
1383 0
1385 0
1388 0
-1391 0
1395 0
-1398 0
1402 0
1405 0
1408 0
1411 0
1413 0
-1416 0
1419 0
-1422 0
-1425 0
-1433 0
-1456 0
-1459 0
1463 0
-1465 0
-1468 0
-1471 0
-1474 0
-1480 0
-1497 0
1501 0
1504 0
-1506 0
1510 0
1513 0
-1515 0
1518 0
-1521 0
1524 0
1527 0
1536 0
-1558 0
-1561 0
-1564 0
-1567 0
1571 0
-1573 0
1576 0
1579 0
1582 0
1585 0
1594 0
-1616 0
-1619 0
-1622 0
1626 0
-1628 0
1631 0
1634 0
-1637 0
-1643 0
-1660 0
-1663 0
-1666 0
1670 0
-1672 0
-1675 0
1678 0
-1681 0
1684 0
1691 0
4 0
36 0
72 0
116 0
160 0
180 0
208 0
252 0
296 0
344 0
-380 0
-420 0
-468 0
-496 0
-536 0
-580 0
-612 0
-660 0
-704 0
-740 0
15 -235 0
-15 235 0
19 -239 0
-19 239 0
23 -243 0
-23 243 0
27 -247 0
-27 247 0
31 -231 0
-31 231 0
91 -195 0
-91 195 0
95 -199 0
-95 199 0
99 -203 0
-99 203 0
103 -183 0
-103 183 0
107 -187 0
-107 187 0
111 -191 0
-111 191 0
163 -371 0
-163 371 0
167 -375 0
-167 375 0
171 -363 0
-171 363 0
175 -367 0
-175 367 0
